11 965
540 7 517 7 431 11
540 7 517 7 431 11
525 7 482 7 365 7 115 9 943 13
525 7 445 7 264 7 63 9 889 11 721 18
525 7 445 7 264 7 63 9 889 11 721 18
525 7 445 7 264 7 63 9 889 11 721 18
528 7 482 7 301 7 114 9 881 11 697 15 578 22
528 7 482 7 366 7 202 12
525 7 482 7 358 7 165 12
525 7 482 7 358 7 165 12
521 7 475 7 329 11
